c Output_time 26.03.2020 18:15:16_+0100 1585242916782158092
c ** Program information **
c program_name                          "QBRG_debug"
c version                               "0.3.20"
c date                                  "25.3.2020"
c gid_id                                "673970833836058123f633335630c185360d632e"
c author                                "Oliver Kullmann"
c url                                   "https://github.com/OKullmann/oklibrary/blob/master/Satisfiability/Transformers/Generators/Random/QBRG.cpp"
c ** Machine information **
c machine_name                          "chyna-Lenovo-G50-70"
c bogomips                              3791.08
c ** Compilation information **
c compiler_version                      "g++ 7.5.0"
c compilation_date                      "Mar_26_2020 11:16:30"
c compilation_options                   "--std=c++17 -pedantic -fmax-errors=5 -Wall -Wextra -g -D_GLIBCXX_DEBUG"
c NDEBUG                                0
c OPTIMIZE                              0
c ** Parameters **
c command-line                          "./QBRG_debug" "a40 e40 a40 40" "355*1,1|2-2,1|3-3,1|4-4,1" "" "1,t" ""
c output                                "QuBlRaGe_160_355_1585242916781965123.qdimacs"
c options                               "filtered,renamed"
c num_quantifier_blocks                 4
c  quantifier_blocks                    1:a1-40 2:e41-80 3:a81-120 4:e121-160
c num_clause-blocks                     1
c  clause-blocks                        355 * {1-40,1,1/2} | {41-80,1,1/2} | {81-120,1,1/2} | {121-160,1,1/2}
c num_e-seeds                           37+2=39
c  e-seeds                              1 0 1 0 5 160 2 40 0 40 1 40 0 40 1 355 4 1 1 1 1 2 2 2 1 1 2 3 3 1 1 2 4 4 1 1 2 1 1585242916781964396
p cnf 159 355
a 1 2 3 4 5 6 7 8 9 10 11 12 13 14 15 16 17 18 19 20 21 22 23 24 25 26 27 28 29 30 31 32 33 34 35 36 37 38 39 0
e 40 41 42 43 44 45 46 47 48 49 50 51 52 53 54 55 56 57 58 59 60 61 62 63 64 65 66 67 68 69 70 71 72 73 74 75 76 77 78 79 0
a 80 81 82 83 84 85 86 87 88 89 90 91 92 93 94 95 96 97 98 99 100 101 102 103 104 105 106 107 108 109 110 111 112 113 114 115 116 117 118 119 0
e 120 121 122 123 124 125 126 127 128 129 130 131 132 133 134 135 136 137 138 139 140 141 142 143 144 145 146 147 148 149 150 151 152 153 154 155 156 157 158 159 0
-7 -67 85 -120 0
8 61 -107 -120 0
29 74 -107 -120 0
-31 46 80 120 0
38 56 81 120 0
-14 -65 88 120 0
-9 -57 -107 120 0
21 58 111 120 0
-37 61 80 -121 0
-15 -77 90 -121 0
13 56 96 -121 0
-38 -46 83 121 0
-39 43 -89 121 0
-9 57 103 121 0
6 -71 104 121 0
39 73 -112 121 0
21 -56 117 121 0
29 59 -80 -122 0
-27 70 98 -122 0
-31 76 -113 -122 0
20 45 113 -122 0
-18 78 -117 -122 0
2 77 118 -122 0
35 -72 81 122 0
-2 -74 82 122 0
32 67 85 122 0
23 61 92 122 0
-28 46 -112 122 0
19 -45 84 -123 0
17 44 -90 -123 0
-11 66 -94 -123 0
-5 48 106 -123 0
-11 -50 -111 -123 0
-7 -61 -119 -123 0
6 -62 -81 123 0
19 -61 -83 123 0
16 69 104 123 0
8 74 117 123 0
-38 -56 -98 -124 0
21 -74 105 -124 0
-7 43 -112 -124 0
18 54 -113 -124 0
35 -75 97 124 0
-23 54 -117 124 0
6 -78 80 -125 0
19 -52 -83 -125 0
18 -43 -96 -125 0
-38 -79 -116 -125 0
-21 75 -81 125 0
3 -46 112 125 0
10 70 82 -126 0
34 -70 -83 -126 0
36 44 85 -126 0
-22 56 -89 -126 0
13 -56 95 -126 0
-34 45 -116 -126 0
38 -60 -80 126 0
-11 54 -85 126 0
30 55 -86 126 0
24 70 -89 126 0
31 72 93 126 0
18 49 -94 126 0
3 40 94 126 0
10 -49 94 126 0
-8 52 101 126 0
33 -60 104 126 0
1 -70 109 -127 0
-3 46 80 127 0
37 68 -85 127 0
37 52 -89 127 0
30 -48 91 127 0
2 -49 -108 127 0
-7 75 -116 127 0
-38 42 -91 -128 0
17 -56 -96 -128 0
-34 -75 102 -128 0
-23 -70 -107 -128 0
37 60 -109 -128 0
30 71 -98 128 0
-21 74 -113 128 0
-25 60 -101 -129 0
-22 -54 103 -129 0
-22 -64 105 -129 0
-17 42 -115 -129 0
-25 52 -85 129 0
-39 78 116 129 0
-26 60 -118 129 0
24 53 -87 -130 0
38 59 -93 -130 0
20 61 -101 -130 0
15 -46 -114 -130 0
-3 -42 -80 130 0
-34 75 86 130 0
-19 74 92 130 0
37 -72 104 130 0
-39 -59 -107 130 0
22 -46 -80 -131 0
-39 48 -93 -131 0
-1 51 -112 -131 0
16 -76 84 131 0
10 -68 -87 131 0
36 -62 93 131 0
32 -67 -104 131 0
-9 61 -115 131 0
-37 64 93 -132 0
-14 -68 93 -132 0
-39 -70 -99 132 0
-12 72 -110 132 0
12 -55 112 132 0
12 61 84 -133 0
39 42 -88 -133 0
21 -45 99 -133 0
-10 44 -101 -133 0
32 76 -93 133 0
23 -53 -101 133 0
36 -78 111 133 0
-7 -66 113 133 0
-13 51 115 133 0
-14 73 -117 133 0
-19 67 80 -134 0
-17 58 -87 -134 0
35 -64 -91 -134 0
-36 52 105 -134 0
14 -51 -111 -134 0
24 -55 111 -134 0
-21 75 118 -134 0
-34 44 -101 134 0
22 -50 -84 -135 0
-29 57 107 -135 0
9 68 -80 135 0
-11 66 100 135 0
38 70 85 -136 0
-12 45 -93 -136 0
-5 77 104 -136 0
-31 -51 -81 136 0
-24 50 -85 136 0
23 -45 -98 136 0
-13 -74 117 136 0
35 43 -80 -137 0
-5 -65 -82 -137 0
30 -48 82 -137 0
-5 -58 -83 -137 0
-17 58 -84 -137 0
20 -44 -87 -137 0
19 74 -102 -137 0
-23 -55 -113 -137 0
-38 -67 -113 -137 0
17 73 -117 -137 0
-11 77 80 137 0
-23 68 -86 137 0
-12 79 -82 -138 0
-38 43 -88 -138 0
-27 -71 88 -138 0
2 -59 102 -138 0
-13 -48 -115 -138 0
-35 47 116 -138 0
14 -45 117 -138 0
-39 -41 -80 138 0
-37 -60 88 138 0
-1 44 -97 138 0
22 -43 -110 138 0
12 -54 -80 -139 0
12 63 81 -139 0
-19 46 -83 -139 0
16 53 95 -139 0
-33 61 103 -139 0
-9 -77 -118 -139 0
-25 71 -84 139 0
-32 42 -85 139 0
10 42 -86 139 0
-12 -76 -97 139 0
4 -60 -100 139 0
-17 -73 101 139 0
-3 -63 -111 139 0
-22 70 114 139 0
-14 75 -109 -140 0
16 68 116 -140 0
-27 -66 -84 140 0
28 -53 -119 140 0
-1 -64 80 -141 0
-32 -47 85 -141 0
-38 40 -102 -141 0
19 78 104 -141 0
6 -41 -108 -141 0
-31 50 114 -141 0
-17 57 115 -141 0
27 -78 119 -141 0
22 -45 -92 141 0
-15 65 -93 141 0
36 75 -104 141 0
19 64 104 141 0
-29 -42 -113 141 0
-33 65 -115 141 0
12 -55 -117 141 0
14 40 117 141 0
19 -72 -82 -142 0
-17 41 -87 -142 0
4 -67 87 -142 0
-21 48 88 -142 0
17 49 94 -142 0
36 65 97 -142 0
29 -59 102 -142 0
-28 -76 -113 -142 0
-15 -50 119 -142 0
25 70 -82 142 0
-13 77 -89 -143 0
-3 70 94 -143 0
32 -56 98 -143 0
-11 -49 99 -143 0
28 -49 -108 -143 0
-33 -69 100 143 0
-23 79 104 143 0
-36 -53 -109 143 0
4 -58 -83 -144 0
35 76 -112 -144 0
29 45 -84 144 0
27 79 -99 144 0
-2 73 -115 144 0
35 51 117 144 0
-8 -48 -107 -145 0
30 60 -108 -145 0
37 -42 -85 145 0
-25 43 -91 145 0
9 -53 -95 145 0
-9 49 -99 145 0
-18 73 -103 145 0
15 54 108 145 0
6 -64 -109 145 0
-22 -59 115 145 0
-6 -67 118 145 0
1 75 89 -146 0
-35 -53 91 -146 0
15 73 91 -146 0
20 62 92 -146 0
-37 79 85 146 0
-39 48 88 146 0
3 76 102 146 0
35 -66 107 146 0
33 -65 -109 146 0
4 56 -117 146 0
31 52 -83 -147 0
-9 -51 -87 -147 0
14 -60 -90 -147 0
-17 69 119 -147 0
-1 -77 -89 147 0
-9 66 91 147 0
-27 -66 -93 147 0
15 -74 97 147 0
14 66 -108 147 0
-28 -60 108 147 0
-17 -42 -117 147 0
9 -67 85 148 0
11 43 -87 148 0
-11 -67 96 148 0
38 45 98 148 0
30 78 -104 148 0
-3 65 115 148 0
17 59 -116 148 0
-3 -42 -84 -149 0
-35 62 -84 -149 0
22 -47 102 -149 0
-6 60 -82 149 0
20 -61 -110 149 0
-30 -77 -111 149 0
26 55 116 149 0
-3 59 119 149 0
-11 41 -81 -150 0
17 41 -82 -150 0
-33 -41 -111 -150 0
-25 -78 80 150 0
10 63 82 150 0
12 -67 87 150 0
19 -63 95 -151 0
35 -62 -97 -151 0
-30 73 109 -151 0
-29 43 -81 151 0
-4 65 -83 151 0
9 42 93 151 0
-22 -52 98 151 0
-15 -42 99 151 0
11 -51 -101 151 0
18 72 -101 151 0
6 62 109 151 0
19 44 -114 151 0
13 -66 116 151 0
31 -55 102 -152 0
-12 -57 102 -152 0
21 -48 -108 -152 0
-10 -52 113 -152 0
-33 -75 83 152 0
1 48 -95 152 0
-23 -76 106 152 0
14 65 -93 -153 0
25 -56 -106 -153 0
10 46 -110 -153 0
6 -63 111 -153 0
15 41 116 -153 0
13 -44 -90 153 0
-13 -52 -93 153 0
28 -51 -100 153 0
2 65 -107 153 0
36 -64 109 153 0
-36 -64 -115 153 0
23 -78 -118 153 0
34 -46 81 -154 0
36 41 -90 -154 0
18 79 -90 -154 0
-18 -68 100 154 0
16 45 -83 -155 0
-2 -58 -87 -155 0
-8 -41 81 155 0
2 -73 -85 155 0
23 56 -111 155 0
1 64 111 155 0
-14 58 86 -156 0
38 -49 -95 -156 0
-30 62 -105 -156 0
-5 -54 -110 -156 0
22 -41 113 -156 0
-39 -51 -119 -156 0
-5 -41 -86 156 0
-37 -48 -87 156 0
-11 40 -96 156 0
-2 72 -98 156 0
24 -50 98 156 0
-34 43 108 156 0
22 -53 -119 156 0
-11 -62 -82 -157 0
-32 46 -84 -157 0
12 -46 84 -157 0
-32 -50 -89 -157 0
-20 -63 97 157 0
-39 -57 106 157 0
15 -77 110 157 0
-18 -76 112 157 0
-10 61 -115 157 0
15 78 -84 -158 0
27 49 84 -158 0
-3 -73 -102 -158 0
14 -49 102 -158 0
15 -52 105 -158 0
-21 58 -107 -158 0
-4 -50 -118 -158 0
-28 -71 -90 158 0
26 42 -92 158 0
16 -74 94 158 0
-39 -75 95 158 0
30 52 -102 158 0
13 77 -103 158 0
25 70 106 158 0
-16 -78 -82 -159 0
-30 -66 -86 -159 0
-31 -57 -87 -159 0
-33 70 -94 -159 0
-7 72 -107 -159 0
